num_occupants = 17;
num_patients = 96;
horizon = 14;
num_rooms = 12;
oc_length_of_stay = [1, 1, 3, 2, 5, 1, 1, 1, 1, 4, 1, 1, 4, 2, 2, 9, 2];
oc_gender = [2, 1, 1, 1, 2, 2, 2, 2, 1, 1, 1, 1, 1, 2, 1, 2, 1];
oc_room = [11, 9, 4, 9, 3, 7, 3, 7, 2, 12, 4, 5, 10, 3, 5, 6, 2];
length_of_stay = [4, 9, 2, 2, 4, 5, 5, 2, 4, 4, 5, 4, 12, 7, 7, 4, 6, 4, 3, 4, 6, 2, 6, 8, 4, 3, 4, 2, 9, 4, 5, 2, 7, 3, 8, 4, 5, 3, 7, 3, 7, 5, 5, 3, 7, 8, 3, 6, 7, 5, 4, 4, 4, 5, 4, 4, 3, 2, 2, 6, 3, 6, 4, 7, 3, 5, 2, 6, 7, 2, 4, 4, 10, 8, 2, 4, 6, 4, 3, 5, 6, 5, 4, 5, 4, 10, 5, 4, 3, 4, 9, 2, 4, 7, 2, 7];
gender = [1, 2, 1, 2, 2, 1, 1, 2, 2, 1, 2, 2, 2, 1, 2, 1, 1, 2, 1, 1, 1, 2, 1, 1, 2, 1, 2, 1, 2, 1, 2, 2, 1, 2, 1, 1, 2, 1, 1, 2, 1, 1, 2, 2, 2, 1, 1, 2, 1, 2, 1, 1, 2, 1, 2, 2, 2, 1, 1, 1, 1, 1, 1, 1, 1, 1, 1, 1, 1, 2, 2, 1, 1, 1, 1, 2, 1, 1, 1, 1, 1, 1, 2, 2, 1, 1, 1, 2, 2, 2, 1, 2, 1, 1, 1, 1];
max_incompatible = 4;
incompatible_rooms = [|3, 0, 0, 0 | 3, 12, 0, 0 | 0, 0, 0, 0 | 7, 8, 0, 0 | 0, 0, 0, 0 | 9, 0, 0, 0 | 4, 0, 0, 0 | 0, 0, 0, 0 | 8, 0, 0, 0 | 0, 0, 0, 0 | 1, 0, 0, 0 | 1, 5, 9, 0 | 0, 0, 0, 0 | 0, 0, 0, 0 | 1, 2, 11, 0 | 2, 3, 8, 9 | 5, 10, 0, 0 | 5, 0, 0, 0 | 5, 0, 0, 0 | 0, 0, 0, 0 | 5, 6, 10, 0 | 0, 0, 0, 0 | 8, 0, 0, 0 | 4, 11, 0, 0 | 10, 0, 0, 0 | 0, 0, 0, 0 | 0, 0, 0, 0 | 7, 0, 0, 0 | 6, 12, 0, 0 | 9, 0, 0, 0 | 9, 10, 11, 0 | 3, 0, 0, 0 | 1, 0, 0, 0 | 4, 8, 0, 0 | 7, 0, 0, 0 | 1, 0, 0, 0 | 0, 0, 0, 0 | 0, 0, 0, 0 | 5, 9, 0, 0 | 12, 0, 0, 0 | 0, 0, 0, 0 | 7, 9, 11, 0 | 0, 0, 0, 0 | 3, 0, 0, 0 | 12, 0, 0, 0 | 8, 0, 0, 0 | 0, 0, 0, 0 | 3, 11, 0, 0 | 1, 0, 0, 0 | 7, 0, 0, 0 | 0, 0, 0, 0 | 12, 0, 0, 0 | 2, 11, 0, 0 | 0, 0, 0, 0 | 10, 0, 0, 0 | 7, 11, 12, 0 | 11, 0, 0, 0 | 2, 8, 0, 0 | 7, 8, 0, 0 | 7, 0, 0, 0 | 0, 0, 0, 0 | 1, 10, 0, 0 | 6, 8, 0, 0 | 0, 0, 0, 0 | 0, 0, 0, 0 | 4, 6, 0, 0 | 0, 0, 0, 0 | 2, 3, 9, 0 | 10, 0, 0, 0 | 0, 0, 0, 0 | 0, 0, 0, 0 | 1, 4, 5, 12 | 1, 0, 0, 0 | 0, 0, 0, 0 | 0, 0, 0, 0 | 2, 8, 0, 0 | 7, 10, 0, 0 | 1, 2, 6, 9 | 0, 0, 0, 0 | 4, 6, 0, 0 | 5, 0, 0, 0 | 7, 8, 0, 0 | 0, 0, 0, 0 | 12, 0, 0, 0 | 2, 4, 0, 0 | 2, 3, 4, 0 | 0, 0, 0, 0 | 3, 0, 0, 0 | 0, 0, 0, 0 | 0, 0, 0, 0 | 9, 12, 0, 0 | 0, 0, 0, 0 | 9, 0, 0, 0 | 11, 0, 0, 0 | 10, 12, 0, 0 | 4, 9, 0, 0|];
mandatory = [false, false, true, false, false, false, true, false, false, false, false, false, false, false, false, false, false, false, false, false, false, true, false, false, false, true, false, false, false, false, false, false, false, false, false, false, false, false, false, false, false, false, false, false, false, true, false, false, false, false, false, false, false, false, true, false, false, false, false, false, false, false, false, false, false, false, false, false, false, false, false, false, false, false, false, false, false, false, false, false, false, false, false, false, false, false, false, true, false, false, false, false, false, false, false, false];
surgery_duration = [240, 180, 120, 60, 180, 90, 120, 90, 240, 60, 240, 60, 240, 60, 120, 60, 120, 120, 120, 120, 300, 120, 180, 60, 180, 180, 240, 120, 60, 60, 180, 60, 60, 120, 90, 180, 90, 90, 240, 90, 180, 120, 60, 60, 90, 120, 180, 60, 300, 180, 90, 60, 120, 240, 90, 180, 60, 120, 60, 90, 120, 240, 60, 60, 180, 300, 90, 180, 240, 120, 120, 90, 90, 60, 60, 240, 240, 90, 90, 180, 120, 90, 120, 60, 90, 120, 180, 60, 120, 90, 60, 60, 180, 240, 60, 240];
surgeon = [1, 2, 4, 1, 3, 3, 4, 2, 3, 1, 3, 2, 1, 3, 1, 2, 3, 1, 2, 2, 4, 1, 4, 2, 3, 2, 1, 2, 2, 3, 1, 2, 2, 2, 1, 4, 2, 1, 4, 2, 3, 2, 1, 3, 1, 2, 4, 2, 1, 2, 2, 2, 2, 4, 3, 3, 3, 2, 4, 4, 2, 3, 1, 2, 4, 3, 4, 2, 3, 2, 1, 2, 3, 2, 4, 1, 1, 2, 2, 1, 2, 4, 3, 2, 2, 3, 3, 2, 3, 1, 1, 1, 2, 3, 2, 3];
num_surgeons = 4;
max_surgery = array2d(1..4, 0..13, [|0, 480, 0, 480, 480, 360, 600, 480, 480, 480, 0, 480, 0, 480 | 0, 600, 480, 480, 360, 0, 360, 480, 480, 480, 480, 480, 0, 480 | 600, 0, 480, 360, 480, 480, 600, 480, 480, 480, 360, 480, 0, 0 | 0, 600, 480, 0, 480, 0, 360, 480, 0, 0, 0, 0, 0, 360|]);
release_day = [4, 4, 2, 4, 0, 6, 2, 2, 8, 1, 3, 2, 1, 0, 5, 6, 2, 1, 1, 4, 1, 1, 1, 1, 7, 3, 4, 11, 1, 3, 1, 2, 1, 7, 4, 1, 2, 3, 6, 4, 6, 1, 1, 2, 3, 2, 1, 3, 1, 3, 1, 4, 8, 1, 2, 0, 0, 1, 1, 1, 1, 3, 1, 3, 1, 7, 2, 8, 0, 1, 4, 8, 2, 3, 2, 1, 1, 1, 1, 1, 4, 4, 2, 4, 1, 0, 2, 4, 3, 3, 1, 1, 1, 4, 9, 2];
due_day = [14, 14, 13, 14, 14, 14, 13, 14, 14, 14, 14, 14, 14, 14, 14, 14, 14, 14, 14, 14, 14, 5, 14, 14, 14, 7, 14, 14, 14, 14, 14, 14, 14, 14, 14, 14, 14, 14, 14, 14, 14, 14, 14, 14, 14, 11, 14, 14, 14, 14, 14, 14, 14, 14, 7, 14, 14, 14, 14, 14, 14, 14, 14, 14, 14, 14, 14, 14, 14, 14, 14, 14, 14, 14, 14, 14, 14, 14, 14, 14, 14, 14, 14, 14, 14, 14, 14, 13, 14, 14, 14, 14, 14, 14, 14, 14];
capacity = [4, 4, 3, 4, 2, 2, 2, 2, 2, 3, 2, 4];
num_ot = 3;
max_ot = array2d(1..3, 0..13, [|0, 600, 720, 720, 600, 0, 0, 600, 720, 720, 720, 720, 0, 720 | 600, 600, 600, 600, 600, 720, 720, 600, 720, 600, 720, 600, 720, 600 | 480, 720, 600, 0, 0, 600, 0, 600, 600, 600, 600, 480, 480, 600|]);
weight_selection = 500;
weight_delay = 15;
